32      3       
14      18      16      
0       0       0       0       3       2       3       4       
1       0       0       10      1       14      
7       3       0       4       2       6       21      
3       8       0       1       3       5       7       8       
9       7       8       0       2       15      21      
4       5       0       0       2       9       24      
3       4       3       8       2       11      30      
3       0       1       0       1       23      
5       0       1       2       2       10      22      
6       0       0       3       3       12      13      17      
2       0       9       0       2       16      18      
2       8       0       0       1       19      
4       5       5       0       2       23      26      
1       8       0       0       1       22      
7       8       10      0       2       18      26      
9       0       6       0       1       31      
10      0       2       4       1       27      
10      0       0       5       2       20      24      
6       0       8       3       1       26      
2       0       8       0       1       25      
1       0       0       7       1       31      
5       1       0       4       1       23      
4       7       0       1       1       28      
10      0       7       3       1       31      
9       5       9       7       2       27      28      
2       0       0       8       2       27      30      
10      9       0       0       1       29      
3       0       5       6       1       29      
6       0       7       0       1       32      
6       9       0       0       1       32      
4       0       0       10      1       32      
0       0       0       0       0       